@relation dataset

@attribute ID numeric
@attribute Time date 'yyyy/MM/dd HH:mm:ss:SSS'
@attribute 'Training round' numeric
@attribute Etat_Supra numeric
@attribute Idle numeric
@attribute Etat_Infra numeric
@attribute S_Abs numeric
@attribute S_Eq numeric
@attribute S_Sat numeric
@attribute I_Abs numeric
@attribute I_Eq numeric
@attribute I_Sat numeric
@attribute ConSupra numeric
@attribute ConInfra numeric
@attribute S_Appel numeric
@attribute S_Extreme numeric
@attribute S_All numeric
@attribute I_Appel numeric
@attribute I_Extreme numeric
@attribute I_All numeric
@attribute N1_C1 numeric
@attribute N1_C2 numeric
@attribute N2_C1 numeric
@attribute N2_C2 numeric
@attribute N3_C1 numeric
@attribute N3_C2 numeric
@attribute N4_C1 numeric
@attribute N4_C2 numeric
@attribute prct_supra numeric
@attribute total numeric
@attribute prct_infra numeric
@attribute S_Breath numeric
@attribute I_Breath numeric
@attribute Idle_Timer numeric
@attribute S1_Delta numeric
@attribute S2_Delta numeric
@attribute S3_Delta numeric
@attribute S4_Delta numeric
@attribute I1_Delta numeric
@attribute I2_Delta numeric
@attribute I3_Delta numeric
@attribute I4_Delta numeric
@attribute Anim-SYMBIOSE numeric
@attribute ModeNuit numeric
@attribute maxVal_Rhiz numeric
@attribute Etat_Supra_out numeric
@attribute Idle_out numeric
@attribute Etat_Infra_out numeric
@attribute S_Abs_out numeric
@attribute S_Eq_out numeric
@attribute S_Sat_out numeric
@attribute I_Abs_out numeric
@attribute I_Eq_out numeric
@attribute I_Sat_out numeric
@attribute ConSupra_out numeric
@attribute ConInfra_out numeric
@attribute S_Appel_out numeric
@attribute S_Extreme_out numeric
@attribute S_All_out numeric
@attribute I_Appel_out numeric
@attribute I_Extreme_out numeric
@attribute I_All_out numeric
@attribute N1_C1_out numeric
@attribute N1_C2_out numeric
@attribute N2_C1_out numeric
@attribute N2_C2_out numeric
@attribute N3_C1_out numeric
@attribute N3_C2_out numeric
@attribute N4_C1_out numeric
@attribute N4_C2_out numeric
@attribute prct_supra_out numeric
@attribute total_out numeric
@attribute prct_infra_out numeric
@attribute S_Breath_out numeric
@attribute I_Breath_out numeric
@attribute Idle_Timer_out numeric
@attribute S1_Delta_out numeric
@attribute S2_Delta_out numeric
@attribute S3_Delta_out numeric
@attribute S4_Delta_out numeric
@attribute I1_Delta_out numeric
@attribute I2_Delta_out numeric
@attribute I3_Delta_out numeric
@attribute I4_Delta_out numeric
@attribute Anim-SYMBIOSE_out numeric
@attribute ModeNuit_out numeric
@attribute maxVal_Rhiz_out numeric

@data
